
mapping with 16 threads...

 0:00:00.75 Mapping INCOV091-BL.extracted.fq.gz to NUC reference...

 0:09:58.21 Generating binary hit matrix.
0:09:58.26 Loading /labs/khatrilab/solomonb/covid/isb/optitype/INCOV091-BL_1.bam started. Number of HLA reads loaded (updated every thousand):
1K...2K...3K...4K...5K...6K...7K...8K...9K...10K...11K...12K...13K...14K...15K...16K...17K...18K...19K...20K...21K...22K...23K...24K...25K...26K...27K...28K...29K...30K...31K...32K...33K...34K...35K...36K...37K...38K...39K...40K...41K...42K...43K...44K...45K...46K...47K...48K...49K...50K...51K...52K...53K...54K...55K...56K...57K...58K...59K...60K...61K...62K...63K...64K...65K...66K...67K...68K...69K...70K...71K...72K...73K...74K...75K...76K...77K...78K...79K...80K...81K...82K...83K...84K...85K...86K...87K...88K...89K...90K...91K...92K...93K...94K...95K...96K...97K...98K...99K...100K...101K...102K...103K...104K...105K...106K...107K...108K...109K...110K...111K...112K...113K...114K...115K...116K...117K...118K...119K...120K...121K...122K...123K...124K...125K...126K...127K...128K...129K...130K...131K...132K...133K...134K...135K...136K...137K...138K...139K...140K...141K...142K...143K...144K...145K...146K...147K...148K...149K...150K...151K...152K...153K...154K...155K...156K...157K...158K...159K...160K...161K...162K...163K...164K...165K...166K...167K...168K...169K...170K...171K...172K...173K...174K...175K...176K...177K...178K...179K...180K...181K...182K...183K...184K...185K...186K...187K...188K...189K...190K...191K...192K...193K...194K...195K...196K...197K...198K...199K...200K...201K...202K...203K...204K...205K...206K...207K...208K...209K...210K...211K...212K...213K...214K...215K...216K...217K...218K...219K...220K...221K...222K...223K...224K...225K...226K...227K...228K...229K...230K...231K...232K...233K...234K...235K...236K...237K...238K...239K...240K...241K...242K...243K...
 0:11:27.99 243254 reads loaded. Creating dataframe...
0:36:58.69 Dataframes created. Shape: 243254 x 7339, hits: 72102616 (73101964), sparsity: 1 in 24.42

 0:39:05.98 temporary pruning of identical rows and columns

 0:39:15.91 Size of mtx with unique rows and columns: (3921, 1970)
0:39:15.91 determining minimal set of non-overshadowed alleles

 0:40:13.32 Keeping only the minimal number of required alleles (1030,)

 0:40:14.99 Creating compact model...

starting ilp solver with 1 threads...

 0:44:48.23 Initializing OptiType model...
GLPSOL: GLPK LP/MIP Solver, v4.57
Parameter(s) specified in the command line:
 --write /tmp/tmpiIpjKI.glpk.raw --wglp /tmp/tmplxrbOz.glpk.glp --cpxlp /tmp/tmpgzBxBC.pyomo.lp
Reading problem data from '/tmp/tmpgzBxBC.pyomo.lp'...
/tmp/tmpgzBxBC.pyomo.lp:205493: warning: lower bound of variable 'x11387' redefined
/tmp/tmpgzBxBC.pyomo.lp:205493: warning: upper bound of variable 'x11387' redefined
11386 rows, 6720 columns, 158919 non-zeros
3874 integer variables, all of which are binary
209367 lines were read
Writing problem data to '/tmp/tmplxrbOz.glpk.glp'...
196948 lines were written
GLPK Integer Optimizer, v4.57
11386 rows, 6720 columns, 158919 non-zeros
3874 integer variables, all of which are binary
Preprocessing...
2583 hidden covering inequaliti(es) were detected
11385 rows, 6719 columns, 158918 non-zeros
3874 integer variables, all of which are binary
Scaling...
 A: min|aij| =  1.000e+00  max|aij| =  4.000e+00  ratio =  4.000e+00
Problem data seem to be well scaled
Constructing initial basis...
Size of triangular part is 11385
Solving LP relaxation...
GLPK Simplex Optimizer, v4.57
11385 rows, 6719 columns, 158918 non-zeros
      0: obj =  -0.000000000e+00 inf =   4.000e+00 (4)
      4: obj =  -0.000000000e+00 inf =   0.000e+00 (0)
*   500: obj =   1.429539104e+05 inf =   0.000e+00 (2654) 1
*  1000: obj =   1.710498230e+05 inf =   0.000e+00 (2332) 1
*  1500: obj =   1.765627890e+05 inf =   0.000e+00 (1901)
*  2000: obj =   1.774272390e+05 inf =   0.000e+00 (1590)
*  2500: obj =   1.776791930e+05 inf =   0.000e+00 (1342)
*  3000: obj =   1.777529430e+05 inf =   0.000e+00 (1137)
*  3500: obj =   1.779787260e+05 inf =   0.000e+00 (901)
*  4000: obj =   1.785484500e+05 inf =   0.000e+00 (401)
*  4401: obj =   1.788383730e+05 inf =   0.000e+00 (0)
OPTIMAL LP SOLUTION FOUND
Integer optimization begins...
+  4401: mip =     not found yet <=              +inf        (1; 0)
+  4401: >>>>>   1.788383730e+05 <=   1.788383730e+05   0.0% (1; 0)
+  4401: mip =   1.788383730e+05 <=     tree is empty   0.0% (0; 1)
INTEGER OPTIMAL SOLUTION FOUND
Time used:   1.7 secs
Memory used: 32.1 Mb (33654784 bytes)
Writing MIP solution to '/tmp/tmpiIpjKI.glpk.raw'...
18108 lines were written

 0:45:11.74 Result dataframe has been constructed...
